
Log started (V11.0.0) Tue May 27 05:04:22 2008

Tried aggregator 1 time.
Reduced MIP has 550 rows, 25001 columns, and 50050 nonzeros.
Presolve time =    0.20 sec.
Clique table members: 500.
MIP emphasis: balance optimality and feasibility.
MIP search method: dynamic search.
Parallel mode: none, using 1 thread.
Root relaxation solution time =    1.94 sec.

        Nodes                                         Cuts/
   Node  Left     Objective  IInf  Best Integer     Best Node    ItCnt     Gap

*     0+    0                        30499.0000      515.6200     1098   98.31%
*     0+    0                          567.0000      515.6200     1098    9.06%
      0     0      516.0000    96      567.0000      Fract: 7     1133    8.99%
*     0+    0                          562.0000      516.0000     1133    8.19%
      0     0      516.0000   100      562.0000     Covers: 1     1155    8.19%
*     0+    0                          561.0000      516.0000     1155    8.02%
      0     0      516.0000   100      561.0000     Covers: 3     1181    8.02%
*     0+    0                          556.0000      516.0000     1181    7.19%
*     0+    0                          555.0000      516.0000     1181    7.03%
*     0+    0                          552.0000      516.0000     1181    6.52%
      0     2      516.0000   100      552.0000      516.0000     1181    6.52%
*    90+   90                          550.0000      516.0000     3543    6.18%
    100   102      516.0000    86      550.0000      516.0000     4030    6.18%
*   140+  140                          547.0000      516.0000     7338    5.67%
*   150+  150                          546.0000      516.0000     8110    5.49%
*   150+  150                          545.0000      516.0000     8110    5.32%
*   160+  160                          544.0000      516.0000     9250    5.15%
*   170+  170                          542.0000      516.0000    10648    4.80%
*   180+  180                          541.0000      516.0000    12853    4.62%
*   180+  180                          540.0000      516.0000    12853    4.44%
*   190+  190                          539.0000      516.0000    14488    4.27%
*   200+  200                          538.0000      516.0000    15606    4.09%
    200   202      516.0000    92      538.0000      516.0000    15606    4.09%
*   220+  219                          537.0000      516.0000    18185    3.91%
*   240+  239                          536.0000      516.0000    19531    3.73%
*   270+  269                          535.0000      516.0000    21758    3.55%
*   280+  279                          534.0000      516.0000    22400    3.37%
    300   301      517.0000    89      534.0000      516.0000    25504    3.37%
*   330+  329                          533.0000      516.0000    35569    3.19%
*   340+  339                          532.0000      516.0000    40127    3.01%
*   400+  398                          531.0000      516.0000    71101    2.82%
    400   400      517.0000    86      531.0000      516.0000    71101    2.82%
*   410+  408                          530.0000      516.0000    77873    2.64%
*   450+  446                          529.0000      516.0000   102870    2.46%
*   460+  456                          528.0000      516.0000   110046    2.27%
    500   494      517.0003    93      528.0000      516.0000   138500    2.27%
*   540+  532                          527.0000      516.0000   147749    2.09%
*   600+  591                          526.0000      516.0000   194583    1.90%
    600   593      518.0000    86      526.0000      516.0000   194583    1.90%
    700   685      519.0000    94      526.0000      516.0000   262408    1.90%
    800   727      516.0000    90      526.0000      516.0000   286366    1.90%
    900   743      517.0000    87      526.0000      516.0000   295373    1.90%
   1000   772      517.0000    95      526.0000      516.0000   305893    1.90%
Elapsed time = 403.38 sec. (tree size = 11.34 MB, solutions = 29)
   1100   800      517.0000    89      526.0000      516.0000   335977    1.90%
   1200   822      518.0000    77      526.0000      516.0000   365201    1.90%
   1300   847      519.0000    75      526.0000      516.0000   423811    1.90%
   1400   867      519.0000    89      526.0000      516.0000   454350    1.90%
   1500   901      520.0000    90      526.0000      516.0000   485139    1.90%
   1600   926      520.0000    87      526.0000      516.0000   532506    1.90%
   1700   970      521.0000    87      526.0000      516.0000   597357    1.90%
   1800  1068      522.0000    77      526.0000      516.0000   660726    1.90%
   1900  1168      522.0000    78      526.0000      516.0000   681767    1.90%
   2000  1263      523.0000    76      526.0000      516.0000   695020    1.90%
Elapsed time = 852.81 sec. (tree size = 19.84 MB, solutions = 29)
   2100  1361      524.0000    74      526.0000      516.0000   702162    1.90%
   2200  1451      525.0000    59      526.0000      516.0000   710182    1.90%
   2300  1537      516.0000    95      526.0000      516.0000   719748    1.90%
*  2311+ 1468                          525.0000      516.0000   721236    1.71%
   2400  1553      516.0000    84      525.0000      516.0000   739834    1.71%
   2500  1649      517.0000    84      525.0000      516.0000   749645    1.71%
   2600  1749      517.0000    89      525.0000      516.0000   761287    1.71%
   2700  1846      518.0000    87      525.0000      516.0000   791907    1.71%
   2800  1945      518.0000    85      525.0000      516.0000   836784    1.71%
   2900  2033      519.0000    89      525.0000      516.0000   906556    1.71%
   3000  2128      519.0006    95      525.0000      516.0000   973417    1.71%
Elapsed time = 1198.05 sec. (tree size = 33.97 MB, solutions = 30)
   3100  2228      520.0000    75      525.0000      516.0000   981648    1.71%
   3200  2328      520.0000    86      525.0000      516.0000   995148    1.71%
   3300  2425      521.0000    83      525.0000      516.0000  1012041    1.71%
   3400  2523      522.0000    81      525.0000      516.0000  1027341    1.71%
   3500  2620      522.0000    85      525.0000      516.0000  1061359    1.71%
   3600  2706      524.0000    58      525.0000      516.0000  1076424    1.71%
   3700  2769      517.0000   115      525.0000      516.0000  1123869    1.71%
   3800  2868      517.0000    97      525.0000      516.0000  1132420    1.71%
   3900  2968      517.0000    94      525.0000      516.0000  1148273    1.71%
   4000  3067      517.0000    97      525.0000      516.0000  1158515    1.71%
Elapsed time = 1459.56 sec. (tree size = 50.92 MB, solutions = 30)
   4100  3167      523.0000    61      525.0000      516.0000  1167042    1.71%
   4200  3267      516.0000    94      525.0000      516.0000  1181767    1.71%
   4300  3366      517.0000    90      525.0000      516.0000  1188400    1.71%
   4400  3465      524.0000    61      525.0000      516.0000  1195041    1.71%
   4500  3565      524.0000    79      525.0000      516.0000  1199523    1.71%
   4600  3661      516.0000    90      525.0000      516.0000  1218454    1.71%
*  4611+ 3315                          524.0000      516.0000  1221470    1.53%
   4700  3401      517.0000    81      524.0000      516.0000  1239874    1.53%
   4800  3500      517.0000    95      524.0000      516.0000  1264652    1.53%
*  4811+ 3268                          523.0000      516.0000  1270499    1.34%
   4900  3358      518.0000    84      523.0000      516.0000  1316438    1.34%
*  4913+ 3075                          522.0000      516.0000  1331838    1.15%
   5000  3163      518.0000    82      522.0000      516.0000  1342035    1.15%
Elapsed time = 1722.53 sec. (tree size = 57.24 MB, solutions = 33)
   5100  3262      520.0000    81      522.0000      516.0000  1381869    1.15%
   5200  3361      517.0000    88      522.0000      516.0000  1427240    1.15%
   5300  3460      518.0000    79      522.0000      516.0000  1506401    1.15%
   5400  3559      517.0000    81      522.0000      516.0000  1555774    1.15%
   5500  3659      517.0000    91      522.0000      516.0000  1687801    1.15%
   5600  3758      517.0000    93      522.0000      516.0000  1754807    1.15%
   5700  3858      517.0000    97      522.0000      516.0000  1901084    1.15%
   5800  3954      517.0000    79      522.0000      516.0000  1967840    1.15%
   5900  4054      517.0000    87      522.0000      516.0000  2016137    1.15%
   6000  4153      517.0000    90      522.0000      516.0000  2035729    1.15%
Elapsed time = 2433.39 sec. (tree size = 81.46 MB, solutions = 33)
   6100  4253      517.0000    89      522.0000      516.0000  2091742    1.15%
   6200  4345      517.0000    84      522.0000      516.0000  2220968    1.15%
*  6211+ 4120                          521.0000      516.0000  2221382    0.96%
   6300  4211      517.0000    83      521.0000      516.0000  2308974    0.96%
   6400  4310      517.0000    92      521.0000      516.0000  2348296    0.96%
   6500  4409      520.0000    80      521.0000      516.0000  2386755    0.96%
   6600  4508      517.0000    83      521.0000      516.0000  2429971    0.96%
   6700  4608      517.0000    90      521.0000      516.0000  2515261    0.96%
   6800  4708      517.0000    94      521.0000      516.0000  2543782    0.96%
   6900  4807      520.0000    58      521.0000      516.0000  2571271    0.96%
   7000  4900      516.0036    95      521.0000      516.0000  2646014    0.96%
Elapsed time = 3130.92 sec. (tree size = 103.16 MB, solutions = 34)
   7100  4996      517.0000    76      521.0000      516.0000  2721616    0.96%
   7200  5095      517.0000    87      521.0000      516.0000  2750650    0.96%
   7300  5194      518.0000    86      521.0000      516.0000  2811234    0.96%
   7400  5293      517.0000    83      521.0000      516.0000  2832316    0.96%
   7500  5392      518.0000    80      521.0000      516.0000  2888111    0.96%
   7600  5491      517.0000    84      521.0000      516.0000  2919342    0.96%
   7700  5591      517.0000    90      521.0000      516.0000  3039871    0.96%
   7800  5690      517.0000    87      521.0000      516.0000  3115327    0.96%
   7900  5790      517.0000    85      521.0000      516.0000  3210187    0.96%
Began writing nodes to disk (directory ./cpxa04064 created)
   8000  5889      517.0000    84      521.0000      516.0000  3231811    0.96%
Elapsed time = 3833.55 sec. (tree size = 130.33 MB, solutions = 34)
Nodefile size =  2.97 MB (1.89 MB after compression)
   8100  5989      517.0000    97      521.0000      516.0000  3268059    0.96%
   8200  6088      517.0000    85      521.0000      516.0000  3290316    0.96%
   8300  6187      519.0000    79      521.0000      516.0000  3334886    0.96%
   8400  6286      517.0000    93      521.0000      516.0000  3356534    0.96%
   8500  6385      519.0000    90      521.0000      516.0000  3400512    0.96%
   8600  6484      517.0000    83      521.0000      516.0000  3440632    0.96%
   8700  6584      517.0000    86      521.0000      516.0000  3526309    0.96%
   8800  6683      517.0000    83      521.0000      516.0000  3552476    0.96%
   8900  6782      518.0000    85      521.0000      516.0000  3567644    0.96%
   9000  6881      519.0000    82      521.0000      516.0000  3574105    0.96%
Elapsed time = 4291.61 sec. (tree size = 158.40 MB, solutions = 34)
Nodefile size = 31.06 MB (21.37 MB after compression)
   9100  6981      519.0000    83      521.0000      516.0000  3586316    0.96%
   9200  7080      517.0000    83      521.0000      516.0000  3616609    0.96%
   9300  7180      518.0000    83      521.0000      516.0000  3669235    0.96%
   9400  7278      517.0000    83      521.0000      516.0000  3699564    0.96%
   9500  7378      517.0000    93      521.0000      516.0000  3776047    0.96%
   9600  7477      517.0000    81      521.0000      516.0000  3800315    0.96%
   9700  7577      517.0000    91      521.0000      516.0000  3873547    0.96%
   9800  7676      517.0000    94      521.0000      516.0000  3910078    0.96%
   9900  7775      518.0000    82      521.0000      516.0000  3996723    0.96%
  10000  7874      517.0000   102      521.0000      516.0000  4013850    0.96%
Elapsed time = 4895.14 sec. (tree size = 187.53 MB, solutions = 34)
Nodefile size = 59.61 MB (43.05 MB after compression)
  10100  7973      518.0000    86      521.0000      516.0000  4064873    0.96%
  10200  8072      517.0000    76      521.0000      516.0000  4103470    0.96%
  10300  8172      517.0000    81      521.0000      516.0000  4193699    0.96%
  10400  8271      517.0000    92      521.0000      516.0000  4231639    0.96%
  10500  8371      517.0000    89      521.0000      516.0000  4309439    0.96%
  10600  8470      517.0000    86      521.0000      516.0000  4358184    0.96%
  10700  8570      517.0000    95      521.0000      516.0000  4420758    0.96%
  10800  8669      517.0000   100      521.0000      516.0000  4450079    0.96%
  10900  8768      518.0000    93      521.0000      516.0000  4511379    0.96%
  11000  8866      517.0000    86      521.0000      516.0000  4543839    0.96%
Elapsed time = 5622.73 sec. (tree size = 217.78 MB, solutions = 34)
Nodefile size = 90.14 MB (66.30 MB after compression)
  11100  8966      517.0000    85      521.0000      516.0000  4614436    0.96%
  11200  9065      517.0000    95      521.0000      516.0000  4642366    0.96%
  11300  9165      517.0000    96      521.0000      516.0000  4702446    0.96%
  11400  9264      519.0000    92      521.0000      516.0000  4734363    0.96%
  11500  9364      519.0000    75      521.0000      516.0000  4747671    0.96%
  11600  9462      517.0000    90      521.0000      516.0000  4780165    0.96%
  11700  9562      517.0000    89      521.0000      516.0000  4863806    0.96%
  11800  9660      517.0000    83      521.0000      516.0000  4894468    0.96%
  11900  9760      517.0000    96      521.0000      516.0000  4972044    0.96%
  12000  9859      517.0000    92      521.0000      516.0000  4994726    0.96%
Elapsed time = 6290.30 sec. (tree size = 249.62 MB, solutions = 34)
Nodefile size = 121.76 MB (90.82 MB after compression)
  12100  9959      517.0000    94      521.0000      516.0000  5025090    0.96%
  12200 10058      517.0000   101      521.0000      516.0000  5048936    0.96%
  12300 10158      517.0000    93      521.0000      516.0000  5074493    0.96%
  12400 10257      517.0000   100      521.0000      516.0000  5091276    0.96%
  12500 10357      517.0000    95      521.0000      516.0000  5146829    0.96%
  12600 10455      517.0000    85      521.0000      516.0000  5193499    0.96%
  12700 10555      517.0000    94      521.0000      516.0000  5278815    0.96%
  12800 10654      517.0000    96      521.0000      516.0000  5313535    0.96%
  12900 10754      517.0000    97      521.0000      516.0000  5352032    0.96%
  13000 10853      517.0000    91      521.0000      516.0000  5382950    0.96%
Elapsed time = 6959.33 sec. (tree size = 282.76 MB, solutions = 34)
Nodefile size = 155.32 MB (117.12 MB after compression)
  13100 10953      519.0000    85      521.0000      516.0000  5416003    0.96%
  13200 11052      517.0000    79      521.0000      516.0000  5438555    0.96%
  13300 11152      520.0000    76      521.0000      516.0000  5444085    0.96%
  13400 11250      517.0000    85      521.0000      516.0000  5480525    0.96%

Cover cuts applied:  1626
Mixed integer rounding cuts applied:  20
Gomory fractional cuts applied:  1

Solution pool: 34 solutions saved.

MIP - Time limit exceeded, integer feasible:  Objective = 5.2100000000e+002
Current MIP best bound = 5.1600000000e+002 (gap = 5, 0.96%)
Solution time = 7200.06 sec.  Iterations = 5525794  Nodes = 13452 (11301)


Incumbent solution
Variable Name           Solution Value
Cmax                        521.000000
X_1_10                        1.000000
X_2_38                        1.000000
X_3_42                        1.000000
X_4_30                        1.000000
X_5_25                        1.000000
X_6_14                        1.000000
X_7_40                        1.000000
X_8_37                        1.000000
X_9_1                         1.000000
X_10_27                       1.000000
X_11_43                       1.000000
X_12_28                       1.000000
X_13_41                       1.000000
X_14_42                       1.000000
X_15_32                       1.000000
X_16_36                       1.000000
X_17_2                        1.000000
X_18_16                       1.000000
X_19_49                       1.000000
X_20_1                        1.000000
X_21_50                       1.000000
X_22_31                       1.000000
X_23_9                        1.000000
X_24_35                       1.000000
X_25_45                       1.000000
X_26_41                       1.000000
X_27_44                       1.000000
X_28_42                       1.000000
X_29_43                       1.000000
X_30_43                       1.000000
X_31_34                       1.000000
X_32_17                       1.000000
X_33_36                       1.000000
X_34_12                       1.000000
X_35_43                       1.000000
X_36_24                       1.000000
X_37_22                       1.000000
X_38_19                       1.000000
X_39_35                       1.000000
X_40_27                       1.000000
X_41_46                       1.000000
X_42_24                       1.000000
X_43_18                       1.000000
X_44_24                       1.000000
X_45_41                       1.000000
X_46_20                       1.000000
X_47_39                       1.000000
X_48_25                       1.000000
X_49_39                       1.000000
X_50_14                       1.000000
X_51_37                       1.000000
X_52_29                       1.000000
X_53_8                        1.000000
X_54_40                       1.000000
X_55_38                       1.000000
X_56_44                       1.000000
X_57_47                       1.000000
X_58_7                        1.000000
X_59_12                       1.000000
X_60_18                       1.000000
X_61_44                       1.000000
X_62_9                        1.000000
X_63_43                       1.000000
X_64_12                       1.000000
X_65_13                       1.000000
X_66_41                       1.000000
X_67_11                       1.000000
X_68_16                       1.000000
X_69_13                       1.000000
X_70_45                       1.000000
X_71_45                       1.000000
X_72_22                       1.000000
X_73_19                       1.000000
X_74_15                       1.000000
X_75_49                       1.000000
X_76_50                       1.000000
X_77_42                       1.000000
X_78_33                       1.000000
X_79_37                       1.000000
X_80_40                       1.000000
X_81_6                        1.000000
X_82_28                       1.000000
X_83_39                       1.000000
X_84_5                        1.000000
X_85_6                        1.000000
X_86_47                       1.000000
X_87_20                       1.000000
X_88_35                       1.000000
X_89_19                       1.000000
X_90_32                       1.000000
X_91_12                       1.000000
X_92_29                       1.000000
X_93_36                       1.000000
X_94_9                        1.000000
X_95_11                       1.000000
X_96_17                       1.000000
X_97_27                       1.000000
X_98_12                       1.000000
X_99_29                       1.000000
X_100_24                      1.000000
X_101_28                      1.000000
X_102_34                      1.000000
X_103_43                      1.000000
X_104_14                      1.000000
X_105_20                      1.000000
X_106_13                      1.000000
X_107_32                      1.000000
X_108_33                      1.000000
X_109_47                      1.000000
X_110_6                       1.000000
X_111_5                       1.000000
X_112_48                      1.000000
X_113_48                      1.000000
X_114_26                      1.000000
X_115_14                      1.000000
X_116_36                      1.000000
X_117_18                      1.000000
X_118_14                      1.000000
X_119_22                      1.000000
X_120_42                      1.000000
X_121_45                      1.000000
X_122_18                      1.000000
X_123_11                      1.000000
X_124_18                      1.000000
X_125_18                      1.000000
X_126_44                      1.000000
X_127_9                       1.000000
X_128_18                      1.000000
X_129_25                      1.000000
X_130_50                      1.000000
X_131_7                       1.000000
X_132_13                      1.000000
X_133_3                       1.000000
X_134_6                       1.000000
X_135_34                      1.000000
X_136_48                      1.000000
X_137_28                      1.000000
X_138_6                       1.000000
X_139_7                       1.000000
X_140_18                      1.000000
X_141_30                      1.000000
X_142_4                       1.000000
X_143_29                      1.000000
X_144_14                      1.000000
X_145_26                      1.000000
X_146_5                       1.000000
X_147_6                       1.000000
X_148_12                      1.000000
X_149_21                      1.000000
X_150_5                       1.000000
X_151_12                      1.000000
X_152_21                      1.000000
X_153_29                      1.000000
X_154_28                      1.000000
X_155_40                      1.000000
X_156_6                       1.000000
X_157_5                       1.000000
X_158_26                      1.000000
X_159_2                       1.000000
X_160_5                       1.000000
X_161_26                      1.000000
X_162_15                      1.000000
X_163_48                      1.000000
X_164_42                      1.000000
X_165_2                       1.000000
X_166_10                      1.000000
X_167_1                       1.000000
X_168_34                      1.000000
X_169_28                      1.000000
X_170_25                      1.000000
X_171_28                      1.000000
X_172_29                      1.000000
X_173_35                      1.000000
X_174_30                      1.000000
X_175_19                      1.000000
X_176_10                      1.000000
X_177_11                      1.000000
X_178_23                      1.000000
X_179_48                      1.000000
X_180_33                      1.000000
X_181_32                      1.000000
X_182_44                      1.000000
X_183_11                      1.000000
X_184_32                      1.000000
X_185_16                      1.000000
X_186_3                       1.000000
X_187_7                       1.000000
X_188_12                      1.000000
X_189_20                      1.000000
X_190_43                      1.000000
X_191_13                      1.000000
X_192_13                      1.000000
X_193_42                      1.000000
X_194_4                       1.000000
X_195_31                      1.000000
X_196_28                      1.000000
X_197_10                      1.000000
X_198_23                      1.000000
X_199_9                       1.000000
X_200_31                      1.000000
X_201_31                      1.000000
X_202_39                      1.000000
X_203_9                       1.000000
X_204_43                      1.000000
X_205_44                      1.000000
X_206_38                      1.000000
X_207_34                      1.000000
X_208_29                      1.000000
X_209_17                      1.000000
X_210_19                      1.000000
X_211_21                      1.000000
X_212_24                      1.000000
X_213_50                      1.000000
X_214_49                      1.000000
X_215_36                      1.000000
X_216_35                      1.000000
X_217_33                      1.000000
X_218_39                      1.000000
X_219_36                      1.000000
X_220_13                      1.000000
X_221_21                      1.000000
X_222_36                      1.000000
X_223_7                       1.000000
X_224_37                      1.000000
X_225_34                      1.000000
X_226_26                      1.000000
X_227_8                       1.000000
X_228_47                      1.000000
X_229_12                      1.000000
X_230_8                       1.000000
X_231_1                       1.000000
X_232_20                      1.000000
X_233_35                      1.000000
X_234_45                      1.000000
X_235_2                       1.000000
X_236_41                      1.000000
X_237_37                      1.000000
X_238_6                       1.000000
X_239_17                      1.000000
X_240_49                      1.000000
X_241_42                      1.000000
X_242_12                      1.000000
X_243_40                      1.000000
X_244_43                      1.000000
X_245_36                      1.000000
X_246_32                      1.000000
X_247_3                       1.000000
X_248_44                      1.000000
X_249_18                      1.000000
X_250_33                      1.000000
X_251_24                      1.000000
X_252_11                      1.000000
X_253_12                      1.000000
X_254_10                      1.000000
X_255_2                       1.000000
X_256_41                      1.000000
X_257_49                      1.000000
X_258_30                      1.000000
X_259_25                      1.000000
X_260_15                      1.000000
X_261_43                      1.000000
X_262_44                      1.000000
X_263_41                      1.000000
X_264_22                      1.000000
X_265_13                      1.000000
X_266_15                      1.000000
X_267_17                      1.000000
X_268_29                      1.000000
X_269_6                       1.000000
X_270_11                      1.000000
X_271_23                      1.000000
X_272_6                       1.000000
X_273_6                       1.000000
X_274_3                       1.000000
X_275_9                       1.000000
X_276_45                      1.000000
X_277_16                      1.000000
X_278_19                      1.000000
X_279_43                      1.000000
X_280_8                       1.000000
X_281_47                      1.000000
X_282_30                      1.000000
X_283_12                      1.000000
X_284_29                      1.000000
X_285_35                      1.000000
X_286_37                      1.000000
X_287_25                      1.000000
X_288_48                      1.000000
X_289_1                       1.000000
X_290_9                       1.000000
X_291_20                      1.000000
X_292_13                      1.000000
X_293_27                      1.000000
X_294_38                      1.000000
X_295_38                      1.000000
X_296_23                      1.000000
X_297_47                      1.000000
X_298_3                       1.000000
X_299_40                      1.000000
X_300_48                      1.000000
X_301_31                      1.000000
X_302_33                      1.000000
X_303_31                      1.000000
X_304_29                      1.000000
X_305_6                       1.000000
X_306_15                      1.000000
X_307_23                      1.000000
X_308_49                      1.000000
X_309_37                      1.000000
X_310_8                       1.000000
X_311_24                      1.000000
X_312_37                      1.000000
X_313_11                      1.000000
X_314_43                      1.000000
X_315_39                      1.000000
X_316_21                      1.000000
X_317_44                      1.000000
X_318_27                      1.000000
X_319_4                       1.000000
X_320_2                       1.000000
X_321_22                      1.000000
X_322_23                      1.000000
X_323_16                      1.000000
X_324_27                      1.000000
X_325_33                      1.000000
X_326_43                      1.000000
X_327_14                      1.000000
X_328_18                      1.000000
X_329_21                      1.000000
X_330_7                       1.000000
X_331_19                      1.000000
X_332_2                       1.000000
X_333_31                      1.000000
X_334_39                      1.000000
X_335_20                      1.000000
X_336_31                      1.000000
X_337_21                      1.000000
X_338_5                       1.000000
X_339_46                      1.000000
X_340_36                      1.000000
X_341_26                      1.000000
X_342_50                      1.000000
X_343_42                      1.000000
X_344_7                       1.000000
X_345_36                      1.000000
X_346_15                      1.000000
X_347_5                       1.000000
X_348_27                      1.000000
X_349_23                      1.000000
X_350_3                       1.000000
X_351_28                      1.000000
X_352_16                      1.000000
X_353_37                      1.000000
X_354_19                      1.000000
X_355_39                      1.000000
X_356_11                      1.000000
X_357_49                      1.000000
X_358_34                      1.000000
X_359_35                      1.000000
X_360_15                      1.000000
X_361_11                      1.000000
X_362_44                      1.000000
X_363_19                      1.000000
X_364_27                      1.000000
X_365_35                      1.000000
X_366_21                      1.000000
X_367_44                      1.000000
X_368_9                       1.000000
X_369_21                      1.000000
X_370_2                       1.000000
X_371_20                      1.000000
X_372_34                      1.000000
X_373_50                      1.000000
X_374_17                      1.000000
X_375_5                       1.000000
X_376_46                      1.000000
X_377_19                      1.000000
X_378_15                      1.000000
X_379_44                      1.000000
X_380_47                      1.000000
X_381_7                       1.000000
X_382_6                       1.000000
X_383_16                      1.000000
X_384_11                      1.000000
X_385_19                      1.000000
X_386_21                      1.000000
X_387_20                      1.000000
X_388_15                      1.000000
X_389_32                      1.000000
X_390_2                       1.000000
X_391_18                      1.000000
X_392_25                      1.000000
X_393_2                       1.000000
X_394_32                      1.000000
X_395_40                      1.000000
X_396_8                       1.000000
X_397_3                       1.000000
X_398_41                      1.000000
X_399_45                      1.000000
X_400_16                      1.000000
X_401_20                      1.000000
X_402_3                       1.000000
X_403_8                       1.000000
X_404_10                      1.000000
X_405_13                      1.000000
X_406_50                      1.000000
X_407_49                      1.000000
X_408_29                      1.000000
X_409_16                      1.000000
X_410_22                      1.000000
X_411_27                      1.000000
X_412_45                      1.000000
X_413_29                      1.000000
X_414_16                      1.000000
X_415_45                      1.000000
X_416_10                      1.000000
X_417_36                      1.000000
X_418_25                      1.000000
X_419_38                      1.000000
X_420_10                      1.000000
X_421_20                      1.000000
X_422_14                      1.000000
X_423_15                      1.000000
X_424_13                      1.000000
X_425_24                      1.000000
X_426_38                      1.000000
X_427_34                      1.000000
X_428_32                      1.000000
X_429_30                      1.000000
X_430_26                      1.000000
X_431_4                       1.000000
X_432_26                      1.000000
X_433_32                      1.000000
X_434_12                      1.000000
X_435_2                       1.000000
X_436_38                      1.000000
X_437_4                       1.000000
X_438_46                      1.000000
X_439_10                      1.000000
X_440_1                       1.000000
X_441_20                      1.000000
X_442_23                      1.000000
X_443_9                       1.000000
X_444_22                      1.000000
X_445_14                      1.000000
X_446_8                       1.000000
X_447_41                      1.000000
X_448_1                       1.000000
X_449_46                      1.000000
X_450_50                      1.000000
X_451_33                      1.000000
X_452_40                      1.000000
X_453_38                      1.000000
X_454_24                      1.000000
X_455_17                      1.000000
X_456_1                       1.000000
X_457_25                      1.000000
X_458_34                      1.000000
X_459_43                      1.000000
X_460_46                      1.000000
X_461_34                      1.000000
X_462_8                       1.000000
X_463_17                      1.000000
X_464_48                      1.000000
X_465_40                      1.000000
X_466_16                      1.000000
X_467_4                       1.000000
X_468_1                       1.000000
X_469_8                       1.000000
X_470_8                       1.000000
X_471_35                      1.000000
X_472_3                       1.000000
X_473_9                       1.000000
X_474_41                      1.000000
X_475_27                      1.000000
X_476_19                      1.000000
X_477_18                      1.000000
X_478_5                       1.000000
X_479_9                       1.000000
X_480_37                      1.000000
X_481_21                      1.000000
X_482_23                      1.000000
X_483_13                      1.000000
X_484_48                      1.000000
X_485_37                      1.000000
X_486_22                      1.000000
X_487_42                      1.000000
X_488_47                      1.000000
X_489_45                      1.000000
X_490_22                      1.000000
X_491_50                      1.000000
X_492_46                      1.000000
X_493_30                      1.000000
X_494_9                       1.000000
X_495_16                      1.000000
X_496_22                      1.000000
X_497_40                      1.000000
X_498_24                      1.000000
X_499_31                      1.000000
X_500_7                       1.000000
All other variables in the range 1-25001 are 0.
